9223372036854775807 9223372036854775807 9223372036854775807 9223372036854775807 9223372036854775807 9223372036854775807 9223372036854775807 9223372036854775807 9223372036854775807 9223372036854775807 9223372036854775807 9223372036854775807 9223372036854775807 9223372036854775807 9223372036854775807 9223372036854775807 9223372036854775807 9223372036854775807 9223372036854775807 9223372036854775807 9223372036854775807 9223372036854775807 9223372036854775807 9223372036854775807 9223372036854775807 9223372036854775807 9223372036854775807 9223372036854775807 9223372036854775807 9223372036854775807 9223372036854775807 9223372036854775807 9223372036854775807 9223372036854775807 9223372036854775807 9223372036854775807 9223372036854775807 9223372036854775807 9223372036854775807 9223372036854775807 9223372036854775807 9223372036854775807 9223372036854775807 9223372036854775807 9223372036854775807 9223372036854775807 9223372036854775807 9223372036854775807 9223372036854775807 9223372036854775807 9223372036854775807 9223372036854775807 9223372036854775807 9223372036854775807 9223372036854775807 9223372036854775807 9223372036854775807 9223372036854775807 9223372036854775807 9223372036854775807 1752 1708 1698 1688 1686 1640 1630 1620 1594 1587 1571 1559 1551 1547 1523 1520 1514 1510 1505 1500 1485 1482 1478 1478 1478 1470 1470 1468 1468 1468 1468 1468 1468 1468 1468 1468 1468 1468 1468 1468 1468 1468 1468 1468 1468 1468 1468 1468 1468 1468 1468 1468 1468 1468 1468 1468 1468 1468 1468 1468 1468 1468 1468 1468 1468 1468 1468 1468 1468 1468 1468 1468 1468 1468 1468 1468 1468 1468 1468 1468 1468 1468 1468 1468 1468 1468 1468 1468 1468 1468 1468 1468 1468 1468 1468 1468 1468 1468 1468 1468 1468 1468 1468 1468 1468 1468 1468 1468 1468 1468 1468 1468 1468 1468 1468 1468 1468 1468 1468 1468 1468 1468 1468 1468 1468 1468 1468 1468 1468 1468 1468 1468 1468 1468 1468 1468 1468 1468 1468 1468 1468 1468 1468 1468 1468 1468 1468 1468 1468 1468 1468 1468 1468 1468 1468 1468 1468 1468 1468 1468 1468 1468 1468 1468 1468 1468 1468 1468 1468 1468 1468 1468 1468 1468 1468 1468 1468 1468 1468 1468 1468 1468 1468 1468 1468 1468 1468 1468 1468 1468 1468 1468 1468 1468 1468 1468 1468 1468 1468 1468 1468 1468 1468 1468 1468 1468 1468 1468 1468 1468 1468 1468 1468 1468 1468 1468 1468 1468 1468 1468 1468 1468 1468 1468 1468 1468 1468 1468 1468 1468 1468 1468 1468 1468 1468 1468 1468 1468 1468 1468 1468 1468 1468 1468 1468 1468 1468 1468 1468 1468 1468 1468 1468 1468 1468 1468 1468 1468 1468 1468 1468 1468 1468 1468 1468 1468 1468 1468 1468 1468 1468 1468 1468 1468 1468 1468 1468 1468 1468 1468 1468 1468 1468 1468 1468 1468 1468 1468 1468 1468 1468 1468 1468 1468 1468 1468 1468 1468 1468 1468 1468 1468 1468 1468 1468 1468 1468 1468 1468 1468 1468 1468 1468 1468 1468 1468 1468 1468 1468 1468 1468 1468 1468 1468 1468 1468 1468 1468 1468 1468 1468 1468 1468 1468 1468 1468 1468 1468 1468 1468 1468 1468 1468 1468 1468 1468 1468 1468 1468 1468 1468 1468 1468 1468 1468 1468 1468 1468 1468 1468 1468 1468 1468 1468 1468 1468 1468 1468 1468 1468 1468 1468 1468 1468 1468 1468 1468 1468 1468 1468 1468 1468 1468 1468 1468 1468 1468 1468 1468 1468 1468 1468 1468 1468 1468 1468 1468 1468 1468 1468 1468 1468 1468 1468 1468 1468 1468 1468 1468 1468 1468 1468 1468 1468 1468 1468 1468 1468 1468 1468 1468 1468 1468 1468 1468 1468 1468 1468 1468 1468 1468 1468 1468 1468 1468 1468 1468 1468 1468 1468 1468 1468 1468 1468 1468 1468 1468 1468 1468 1468 1468 1468 1468 1468 1468 1468 1468 1468 1468 1468 1468 1468 1468 1468 1468 1468 1468 1468 1468 1468 1468 1468 1468 1468 1468 1468 1468 1468 1468 1468 1468 1468 1468 1468 1468 1468 1468 1468 1468 1468 1468 1468 1468 1468 1468 1468 1468 1468 1468 1468 1468 1468 1468 1468 1468 1468 1468 1468 1468 1468 1468 1468 1468 1468 1468 1468 1468 1468 1468 1468 1468 1468 1468 1468 1468 1468 1468 1468 1468 1468 1468 1468 1468 1468 1468 1468 1468 1468 1468 1468 1468 1468 1468 1468 1468 1468 1468 1468 1468 1468 1468 1468 1468 1468 1468 1468 1468 1468 1468 1468 1468 1468 1468 1468 1468 1468 1468 1468 1468 1468 1468 1468 1468 1468 1468 1468 1468 1468 1468 1468 1468 1468 1468 1468 1468 1468 1468 1468 1468 1468 1468 1468 1468 1468 1468 1468 1468 1468 1468 1468 1468 1468 1468 1468 1468 1468 1468 1468 1468 1468 1468 1468 1468 1468 1468 1468 1468 1468 1468 1468 1468 1468 1468 1468 1468 1468 1468 1468 1468 1468 1468 1468 1468 1468 1468 1468 1468 1468 1468 1468 1468 1468 1468 1468 1468 1468 1468 1468 1468 1468 1468 1468 1468 1468 1468 1468 1468 1468 1468 1468 1468 1468 1468 1468 1468 1468 1468 1468 1468 1468 1468 1468 1468 1468 1468 1468 1468 1468 1468 1468 1468 1468 1468 1468 1468 1468 1468 1468 1468 1468 1468 1468 1468 1468 1468 1468 1468 1468 1468 1468 1468 1468 1468 1468 1468 1468 1468 1468 1468 1468 1468 1468 1468 1468 1468 1468 1468 1468 1468 1468 1468 1468 1468 1468 1468 1468 1468 1468 1468 1468 1468 1468 1468 1468 1468 1468 1468 1468 1468 1468 1468 1468 1468 1468 1468 1468 1468 1468 1468 1468 1468 1468 1468 1468 1468 1468 1468 1468 1468 1468 1468 1468 1468 1468 1468 1468 1468 1468 1468 1468 1468 1468 1468 1468 1468 1468 1468 1468 1468 1468 1468 1468 1468 1468 1468 1468 1468 1468 1468 1468 1468 1468 1468 1468 1468 1468 1468 1468 1468 1468 1468 1468 1468 1468 1468 1468 1468 1468 1468 1468 1468 1468 1468 1468 1468 1468 1468 1468 1468 1468 1468 1468 1468 1468 1468 1468 1468 1468 1468 1468 1468 1468 1468 1468 1468 1468 1468 1468 1468 1468 1468 1468 1468 1468 1468 1468 1468 1468 1468 1468 1468 1468 1468 1468 1468 1468 1468 1468 1468 1468 1468 1468 1468 1468 1468 1468 1468 1468 1468 1468 1468 1468 1468 1468 1468 1468 1468 1468 1468 1468 1468 1468 1468 1468 1468 1468 1468 1468 1468 1468 1468 1468 1468 1468 1468 1468 1468 1468 1468 1468 1468 1468 1468 1468 1468 1468 1468 1468 1468 1468 1468 1468 1468 1468 1468 1468 1468 1468 1468 1468 1468 1468 1468 1468 1468 1468 1468 1468 1468 1468 1468 1468 1468 1468 1468 1468 1468 1468 1468 1468 1468 1468 1468 1468 1468 1468 1468 1468 1468 1468 1468 1468 1468 1468 1468 1468 1468 1468 1468 1468 1468 1468 1468 1468 1468 1468 1468 1468 1468 1468 1468 1468 1468 1468 1468 1468 1468 1468 1468 1468 1468 1468 1468 1468 1468 1468 1468 1468 1468 1468 1468 1468 1468 1468 1468 1468 1468 1468 1468 1468 1468 1468 1468 1468 1468 1468 1468 1468 1468 1468 1468 1468 1468 1468 1468 1468 1468 1468 1468 1468 1468 1468 1468 1468 1468 1468 1468 1468 1468 1468 1468 1468 1468 1468 1468 1468 1468 1468 1468 1468 1468 1468 1468 1468 1468 1468 1468 1468 1468 1468 1468 1468 1468 1468 1468 1468 1468 1468 1468 1468 1468 1468 1468 1468 1468 1468 1468 1468 1468 1468 1468 1468 1468 1468 1468 1468 1468 1468 1468 1468 1468 1468 1468 1468 1468 1468 1468 1468 1468 1468 1468 1468 1468 1468 1468 1468 1468 1468 1468 1468 1468 1468 1468 1468 1468 1468 1468 1468 1468 1468 1468 1468 1468 1468 1468 1468 1468 1468 1468 1468 1468 1468 1468 1468 1468 1468 1468 1468 1468 1468 1468 1468 1468 1468 1468 1468 1468 1468 1468 1468 1468 1468 1468 1468 1468 1468 1468 1468 1468 1468 1468 1468 1468 1468 1468 1468 1468 1468 1468 1468 1468 1468 1468 1468 1468 1468 1468 1468 1468 1468 1468 1468 1468 1468 1468 1468 1468 1468 1468 1468 1468 1468 1468 1468 1468 1468 1468 1468 1468 1468 1468 1468 1468 1468 1468 1468 1468 1468 1468 1468 1468 1468 1468 1468 1468 1468 1468 1468 1468 1468 1468 1468 1468 1468 1468 1468 1468 1468 1468 1468 1468 1468 1468 1468 1468 1468 1468 1468 1468 1468 1468 1468 1468 1468 1468 1468 1468 1468 1468 1468 1468 1468 1468 1468 1468 1468 1468 1468 1468 1468 1468 1468 1468 1468 1468 1468 1468 1468 1468 1468 1468 1468 1468 1468 1468 1468 1468 1468 1468 1468 1468 1468 1468 1468 1468 1468 1468 1468 1468 1468 1468 1468 1468 1468 1468 1468 1468 1468 1468 1468 1468 1468 1468 1468 1468 1468 1468 1468 1468 1468 1468 1468 1468 1468 1468 1468 1468 1468 1468 1468 1468 1468 1468 1468 1468 1468 1468 1468 1468 1468 1468 1468 1468 1468 1468 1468 1468 1468 1468 1468 1468 1468 1468 1468 1468 1468 1468 1468 1468 1468 1468 1468 1468 1468 1468 1468 1468 1468 1468 1468 1468 1468 1468 1468 1468 1468 1468 1468 1468 1468 1468 1468 1468 1468 1468 1468 1468 1468 1468 1468 1468 1468 1468 1468 1468 1468 1468 1468 1468 1468 1468 1468 1468 1468 1468 1468 1468 1468 1468 1468 1468 1468 1468 1468 1468 1468 1468 1468 1468 1468 1468 1468 1468 1468 1468 1468 1468 1468 1468 1468 1468 1468 1468 1468 1468 1468 1468 1468 1468 1468 1468 1468 1468 1468 1468 1468 1468 1468 1468 1468 1468 1468 1468 1468 1468 1468 1468 1468 1468 1468 1468 1468 1468 1468 1468 1468 1468 1468 1468 1468 1468 1468 1468 1468 1468 1468 1468 1468 1468 1468 1468 1468 1468 1468 1468 1468 1468 1468 1468 1468 1468 1468 1468 1468 1468 1468 1468 1468 1468 1468 1468 1468 1468 1468 1468 1468 1468 1468 1468 1468 1468 1468 1468 1468 1468 1468 1468 1468 1468 1468 1468 1468 1468 1468 1468 1468 1468 1468 1468 1468 1468 1468 1468 1468 1468 1468 1468 1468 1468 1468 1468 1468 1468 1468 1468 1468 1468 1468 1468 1468 1468 1468 1468 1468 1468 1468 1468 1468 1468 1468 1468 1468 1468 1468 1468 1468 1468 1468 1468 1468 1468 1468 1468 1468 1468 1468 1468 1468 1468 1468 1468 1468 1468 1468 1468 1468 1468 1468 1468 1468 1468 1468 1468 1468 1468 1468 1468 1468 1468 1468 1468 1468 1468 1468 1468 1468 1468 1468 1468 1468 1468 1468 1468 1468 1468 1468 1468 1468 1468 1468 1468 1468 1468 1468 1468 1468 1468 1468 1468 1468 1468 1468 1468 1468 1468 1468 1468 1468 1468 1468 1468 1468 1468 1468 1468 1468 1468 1468 1468 1468 1468 1468 1468 1468 1468 1468 1468 1468 1468 1468 1468 1468 1468 1468 1468 1468 1468 1468 1468 1468 1468 1468 1468 1468 1468 1468 1468 1468 1468 1468 1468 1468 1468 1468 1468 1468 1468 1468 1468 1468 1468 1468 1468 1468 1468 1468 1468 1468 1468 1468 1468 1468 1468 1468 1468 1468 1468 1468 1468 1468 1468 1468 1468 1468 1468 1468 1468 1468 1468 1468 1468 1468 1468 1468 1468 1468 1468 1468 1468 1468 1468 1468 1468 1468 1468 1468 1468 1468 1468 1468 1468 1468 1468 1468 1468 1468 1468 1468 1468 1468 1468 1468 1468 1468 1468 1468 1468 1468 1468 1468 1468 1468 1468 1468 1468 1468 1468 1468 1468 1468 1468 1468 1468 1468 1468 1468 1468 1468 1468 1468 1468 1468 1468 1468 1468 1468 1468 1468 1468 1468 1468 1468 1468 1468 1468 1468 1468 1468 1468 1468 1468 1468 1468 1468 1468 1468 1468 1468 1468 1468 1468 1468 1468 1468 1468 1468 1468 1468 1468 1468 1468 1468 1468 1468 1468 1468 1468 1468 1468 1468 1468 1468 1468 1468 1468 1468 1468 1468 1468 1468 1468 1468 1468 1468 1468 1468 1468 1468 1468 1468 1468 1468 1468 1468 1468 1468 1468 1468 1468 1468 1468 1468 1468 1468 1468 1468 1468 1468 1468 1468 1468 1468 1468 1468 1468 1468 1468 1468 1468 1468 1468 1468 1468 1468 1468 1468 1468 1468 1468 1468 1468 1468 1468 1468 1468 1468 1468 1468 1468 1468 1468 1468 1468 1468 1468 1468 1468 1468 1468 1468 1468 1468 1468 1468 1468 1468 1468 1468 1468 1468 1468 1468 1468 1468 1468 1468 1468 1468 1468 1468 1468 1468 1468 1468 1468 1468 1468 1468 1468 1468 1468 1468 1468 1468 1468 1468 1468 1468 1468 1468 1468 1468 1468 1468 1468 1468 1468 1468 1468 1468 
0 0 0 0 0 0 0 0 0 0 0 0 0 0 0 0 0 0 0 0 0 0 0 0 0 0 0 0 0 0 0 0 0 0 0 0 0 0 0 0 0 0 0 0 0 0 0 0 0 0 0 0 0 0 0 0 0 0 0 0 1765 1745 1699 1699 1687 1655 1631 1620 1595 1593 1574 1570 1557 1550 1549 1524 1522 1514 1512 1509 1489 1487 1484 1484 1481 1477 1477 1476 1469 1469 1468 1468 1468 1468 1468 1468 1468 1468 1468 1468 1468 1468 1468 1468 1468 1468 1468 1468 1468 1468 1468 1468 1468 1468 1468 1468 1468 1468 1468 1468 1468 1468 1468 1468 1468 1468 1468 1468 1468 1468 1468 1468 1468 1468 1468 1468 1468 1468 1468 1468 1468 1468 1468 1468 1468 1468 1468 1468 1468 1468 1468 1468 1468 1468 1468 1468 1468 1468 1468 1468 1468 1468 1468 1468 1468 1468 1468 1468 1468 1468 1468 1468 1468 1468 1468 1468 1468 1468 1468 1468 1468 1468 1468 1468 1468 1468 1468 1468 1468 1468 1468 1468 1468 1468 1468 1468 1468 1468 1468 1468 1468 1468 1468 1468 1468 1468 1468 1468 1468 1468 1468 1468 1468 1468 1468 1468 1468 1468 1468 1468 1468 1468 1468 1468 1468 1468 1468 1468 1468 1468 1468 1468 1468 1468 1468 1468 1468 1468 1468 1468 1468 1468 1468 1468 1468 1468 1468 1468 1468 1468 1468 1468 1468 1468 1468 1468 1468 1468 1468 1468 1468 1468 1468 1468 1468 1468 1468 1468 1468 1468 1468 1468 1468 1468 1468 1468 1468 1468 1468 1468 1468 1468 1468 1468 1468 1468 1468 1468 1468 1468 1468 1468 1468 1468 1468 1468 1468 1468 1468 1468 1468 1468 1468 1468 1468 1468 1468 1468 1468 1468 1468 1468 1468 1468 1468 1468 1468 1468 1468 1468 1468 1468 1468 1468 1468 1468 1468 1468 1468 1468 1468 1468 1468 1468 1468 1468 1468 1468 1468 1468 1468 1468 1468 1468 1468 1468 1468 1468 1468 1468 1468 1468 1468 1468 1468 1468 1468 1468 1468 1468 1468 1468 1468 1468 1468 1468 1468 1468 1468 1468 1468 1468 1468 1468 1468 1468 1468 1468 1468 1468 1468 1468 1468 1468 1468 1468 1468 1468 1468 1468 1468 1468 1468 1468 1468 1468 1468 1468 1468 1468 1468 1468 1468 1468 1468 1468 1468 1468 1468 1468 1468 1468 1468 1468 1468 1468 1468 1468 1468 1468 1468 1468 1468 1468 1468 1468 1468 1468 1468 1468 1468 1468 1468 1468 1468 1468 1468 1468 1468 1468 1468 1468 1468 1468 1468 1468 1468 1468 1468 1468 1468 1468 1468 1468 1468 1468 1468 1468 1468 1468 1468 1468 1468 1468 1468 1468 1468 1468 1468 1468 1468 1468 1468 1468 1468 1468 1468 1468 1468 1468 1468 1468 1468 1468 1468 1468 1468 1468 1468 1468 1468 1468 1468 1468 1468 1468 1468 1468 1468 1468 1468 1468 1468 1468 1468 1468 1468 1468 1468 1468 1468 1468 1468 1468 1468 1468 1468 1468 1468 1468 1468 1468 1468 1468 1468 1468 1468 1468 1468 1468 1468 1468 1468 1468 1468 1468 1468 1468 1468 1468 1468 1468 1468 1468 1468 1468 1468 1468 1468 1468 1468 1468 1468 1468 1468 1468 1468 1468 1468 1468 1468 1468 1468 1468 1468 1468 1468 1468 1468 1468 1468 1468 1468 1468 1468 1468 1468 1468 1468 1468 1468 1468 1468 1468 1468 1468 1468 1468 1468 1468 1468 1468 1468 1468 1468 1468 1468 1468 1468 1468 1468 1468 1468 1468 1468 1468 1468 1468 1468 1468 1468 1468 1468 1468 1468 1468 1468 1468 1468 1468 1468 1468 1468 1468 1468 1468 1468 1468 1468 1468 1468 1468 1468 1468 1468 1468 1468 1468 1468 1468 1468 1468 1468 1468 1468 1468 1468 1468 1468 1468 1468 1468 1468 1468 1468 1468 1468 1468 1468 1468 1468 1468 1468 1468 1468 1468 1468 1468 1468 1468 1468 1468 1468 1468 1468 1468 1468 1468 1468 1468 1468 1468 1468 1468 1468 1468 1468 1468 1468 1468 1468 1468 1468 1468 1468 1468 1468 1468 1468 1468 1468 1468 1468 1468 1468 1468 1468 1468 1468 1468 1468 1468 1468 1468 1468 1468 1468 1468 1468 1468 1468 1468 1468 1468 1468 1468 1468 1468 1468 1468 1468 1468 1468 1468 1468 1468 1468 1468 1468 1468 1468 1468 1468 1468 1468 1468 1468 1468 1468 1468 1468 1468 1468 1468 1468 1468 1468 1468 1468 1468 1468 1468 1468 1468 1468 1468 1468 1468 1468 1468 1468 1468 1468 1468 1468 1468 1468 1468 1468 1468 1468 1468 1468 1468 1468 1468 1468 1468 1468 1468 1468 1468 1468 1468 1468 1468 1468 1468 1468 1468 1468 1468 1468 1468 1468 1468 1468 1468 1468 1468 1468 1468 1468 1468 1468 1468 1468 1468 1468 1468 1468 1468 1468 1468 1468 1468 1468 1468 1468 1468 1468 1468 1468 1468 1468 1468 1468 1468 1468 1468 1468 1468 1468 1468 1468 1468 1468 1468 1468 1468 1468 1468 1468 1468 1468 1468 1468 1468 1468 1468 1468 1468 1468 1468 1468 1468 1468 1468 1468 1468 1468 1468 1468 1468 1468 1468 1468 1468 1468 1468 1468 1468 1468 1468 1468 1468 1468 1468 1468 1468 1468 1468 1468 1468 1468 1468 1468 1468 1468 1468 1468 1468 1468 1468 1468 1468 1468 1468 1468 1468 1468 1468 1468 1468 1468 1468 1468 1468 1468 1468 1468 1468 1468 1468 1468 1468 1468 1468 1468 1468 1468 1468 1468 1468 1468 1468 1468 1468 1468 1468 1468 1468 1468 1468 1468 1468 1468 1468 1468 1468 1468 1468 1468 1468 1468 1468 1468 1468 1468 1468 1468 1468 1468 1468 1468 1468 1468 1468 1468 1468 1468 1468 1468 1468 1468 1468 1468 1468 1468 1468 1468 1468 1468 1468 1468 1468 1468 1468 1468 1468 1468 1468 1468 1468 1468 1468 1468 1468 1468 1468 1468 1468 1468 1468 1468 1468 1468 1468 1468 1468 1468 1468 1468 1468 1468 1468 1468 1468 1468 1468 1468 1468 1468 1468 1468 1468 1468 1468 1468 1468 1468 1468 1468 1468 1468 1468 1468 1468 1468 1468 1468 1468 1468 1468 1468 1468 1468 1468 1468 1468 1468 1468 1468 1468 1468 1468 1468 1468 1468 1468 1468 1468 1468 1468 1468 1468 1468 1468 1468 1468 1468 1468 1468 1468 1468 1468 1468 1468 1468 1468 1468 1468 1468 1468 1468 1468 1468 1468 1468 1468 1468 1468 1468 1468 1468 1468 1468 1468 1468 1468 1468 1468 1468 1468 1468 1468 1468 1468 1468 1468 1468 1468 1468 1468 1468 1468 1468 1468 1468 1468 1468 1468 1468 1468 1468 1468 1468 1468 1468 1468 1468 1468 1468 1468 1468 1468 1468 1468 1468 1468 1468 1468 1468 1468 1468 1468 1468 1468 1468 1468 1468 1468 1468 1468 1468 1468 1468 1468 1468 1468 1468 1468 1468 1468 1468 1468 1468 1468 1468 1468 1468 1468 1468 1468 1468 1468 1468 1468 1468 1468 1468 1468 1468 1468 1468 1468 1468 1468 1468 1468 1468 1468 1468 1468 1468 1468 1468 1468 1468 1468 1468 1468 1468 1468 1468 1468 1468 1468 1468 1468 1468 1468 1468 1468 1468 1468 1468 1468 1468 1468 1468 1468 1468 1468 1468 1468 1468 1468 1468 1468 1468 1468 1468 1468 1468 1468 1468 1468 1468 1468 1468 1468 1468 1468 1468 1468 1468 1468 1468 1468 1468 1468 1468 1468 1468 1468 1468 1468 1468 1468 1468 1468 1468 1468 1468 1468 1468 1468 1468 1468 1468 1468 1468 1468 1468 1468 1468 1468 1468 1468 1468 1468 1468 1468 1468 1468 1468 1468 1468 1468 1468 1468 1468 1468 1468 1468 1468 1468 1468 1468 1468 1468 1468 1468 1468 1468 1468 1468 1468 1468 1468 1468 1468 1468 1468 1468 1468 1468 1468 1468 1468 1468 1468 1468 1468 1468 1468 1468 1468 1468 1468 1468 1468 1468 1468 1468 1468 1468 1468 1468 1468 1468 1468 1468 1468 1468 1468 1468 1468 1468 1468 1468 1468 1468 1468 1468 1468 1468 1468 1468 1468 1468 1468 1468 1468 1468 1468 1468 1468 1468 1468 1468 1468 1468 1468 1468 1468 1468 1468 1468 1468 1468 1468 1468 1468 1468 1468 1468 1468 1468 1468 1468 1468 1468 1468 1468 1468 1468 1468 1468 1468 1468 1468 1468 1468 1468 1468 1468 1468 1468 1468 1468 1468 1468 1468 1468 1468 1468 1468 1468 1468 1468 1468 1468 1468 1468 1468 1468 1468 1468 1468 1468 1468 1468 1468 1468 1468 1468 1468 1468 1468 1468 1468 1468 1468 1468 1468 1468 1468 1468 1468 1468 1468 1468 1468 1468 1468 1468 1468 1468 1468 1468 1468 1468 1468 1468 1468 1468 1468 1468 1468 1468 1468 1468 1468 1468 1468 1468 1468 1468 1468 1468 1468 1468 1468 1468 1468 1468 1468 1468 1468 1468 1468 1468 1468 1468 1468 1468 1468 1468 1468 1468 1468 1468 1468 1468 1468 1468 1468 1468 1468 1468 1468 1468 1468 1468 1468 1468 1468 1468 1468 1468 1468 1468 1468 1468 1468 1468 1468 1468 1468 1468 1468 1468 1468 1468 1468 1468 1468 1468 1468 1468 1468 1468 1468 1468 1468 1468 1468 1468 1468 1468 1468 1468 1468 1468 1468 1468 1468 1468 1468 1468 1468 1468 1468 1468 1468 1468 1468 1468 1468 1468 1468 1468 1468 1468 1468 1468 1468 1468 1468 1468 1468 1468 1468 1468 1468 1468 1468 1468 1468 1468 1468 1468 1468 1468 1468 1468 1468 1468 1468 1468 1468 1468 1468 1468 1468 1468 1468 1468 1468 1468 1468 1468 1468 1468 1468 1468 1468 1468 1468 1468 1468 1468 1468 1468 1468 1468 1468 1468 1468 1468 1468 1468 1468 1468 1468 1468 1468 1468 1468 1468 1468 1468 1468 1468 1468 1468 1468 1468 1468 1468 1468 1468 1468 1468 1468 1468 1468 1468 1468 1468 1468 1468 1468 1468 1468 1468 1468 1468 1468 1468 1468 1468 1468 1468 1468 1468 1468 1468 1468 1468 1468 1468 1468 1468 1468 1468 1468 1468 1468 1468 1468 1468 1468 1468 1468 1468 1468 1468 1468 1468 1468 1468 1468 1468 1468 1468 1468 1468 1468 1468 1468 1468 1468 1468 1468 1468 1468 1468 1468 1468 1468 1468 1468 1468 1468 1468 1468 1468 1468 1468 1468 1468 1468 1468 1468 1468 1468 1468 1468 1468 1468 1468 1468 1468 1468 1468 1468 1468 1468 1468 1468 1468 1468 1468 1468 1468 1468 1468 1468 1468 1468 1468 1468 1468 1468 1468 1468 1468 1468 1468 1468 1468 1468 1468 1468 1468 1468 1468 1468 1468 1468 1468 1468 1468 1468 1468 1468 1468 1468 1468 1468 1468 1468 1468 1468 1468 1468 1468 1468 1468 1468 1468 1468 1468 1468 1468 1468 1468 1468 1468 1468 1468 1468 1468 1468 1468 1468 1468 1468 1468 1468 1468 1468 1468 1468 1468 1468 1468 1468 1468 1468 1468 1468 1468 1468 1468 1468 1468 1468 1468 1468 1468 1468 1468 1468 1468 1468 1468 1468 1468 1468 1468 1468 1468 1468 1468 1468 1468 1468 1468 1468 1468 1468 1468 1468 1468 1468 1468 1468 1468 1468 1468 1468 1468 1468 1468 1468 1468 1468 1468 1468 1468 1468 1468 1468 1468 1468 1468 1468 1468 1468 1468 1468 1468 1468 1468 1468 1468 1468 1468 1468 1468 1468 1468 1468 1468 1468 1468 1468 1468 1468 1468 1468 1468 1468 1468 1468 1468 1468 1468 1468 1468 1468 1468 1468 1468 1468 1468 1468 1468 1468 1468 1468 1468 1468 1468 1468 1468 1468 1468 1468 1468 1468 1468 1468 1468 1468 1468 1468 1468 1468 1468 1468 1468 1468 1468 1468 1468 1468 1468 1468 1468 1468 1468 1468 1468 1468 1468 1468 1468 1468 1468 1468 1468 1468 1468 1468 1468 1468 1468 1468 1468 1468 1468 1468 1468 1468 1468 1468 1468 1468 1468 1468 1468 1468 1468 1468 1468 